; benchmark generated from python API
(set-info :status unknown)
(declare-datatypes ((RealState 0)) (((RMk1 (rval1 Real)) (RMk2 (rval2 Real)))))
 (assert
 (forall ((|v11:0| Real) )(exists ((|v10:1_st| RealState) (val!2754 Real) )(forall ((|v9:2| Real) )(exists ((|v8:3_st| RealState) (val!2755 Real) )(forall ((|v7:4| Real) )(exists ((|v6:5_st| RealState) (val!2756 Real) )(forall ((|v5:6| Real) )(exists ((|v4:7_st| RealState) (val!2757 Real) )(forall ((|v3:8| Real) )(exists ((|v2:9_st| RealState) (val!2758 Real) )(forall ((|v1:10| Real) )(exists ((|v0:11_st| RealState) (val!2759 Real) )(let ((?x2238 (+ (+ (+ (* 5.0 |v11:0|) (* 15.0 |v9:2|)) (* (- 8.0) (rval2 |v8:3_st|))) (* 20.0 |v9:2|))))
 (let ((?x2345 (- 4.0)))
 (let ((?x1127 (+ (+ (+ (* 10.0 |v5:6|) (* 2.0 |v9:2|)) (* (- 8.0) (rval2 |v2:9_st|))) (* (- 10.0) (rval2 |v10:1_st|)))))
 (let ((?x1592 (rval2 |v2:9_st|)))
 (let ((?x2530 (* 15.0 ?x1592)))
 (let ((?x1088 (+ (+ (* ?x2345 (rval2 |v4:7_st|)) (* 8.0 |v3:8|)) (* 19.0 (rval2 |v4:7_st|)))))
 (let ((?x988 (- 15.0)))
 (let ((?x2281 (* 5.0 |v5:6|)))
 (let ((?x2515 (+ (+ (* 14.0 (rval2 |v10:1_st|)) (* (- 9.0) (rval2 |v8:3_st|))) (* 17.0 (rval2 |v10:1_st|)))))
 (let (($x2463 (and (or (<= (+ ?x2515 ?x2281) ?x988) (<= (+ ?x1088 ?x2530) 7.0)) (and (<= ?x1127 ?x2345) (<= ?x2238 15.0)))))
 (let ((?x2385 (rval2 |v4:7_st|)))
 (let ((?x2247 (- 6.0)))
 (let ((?x1509 (* ?x2247 ?x2385)))
 (let ((?x1555 (+ (+ (* (- 18.0) |v3:8|) (* 19.0 (rval2 |v0:11_st|))) (* (- 19.0) (rval2 |v8:3_st|)))))
 (let ((?x2070 (+ (+ (* 16.0 (rval2 |v0:11_st|)) (* (- 19.0) ?x1592)) (* (- 10.0) |v9:2|))))
 (let (($x848 (and (<= (+ ?x2070 (* (- 20.0) |v7:4|)) 19.0) (<= (+ ?x1555 ?x1509) 14.0))))
 (let ((?x1338 (* 19.0 ?x1592)))
 (let ((?x751 (- 20.0)))
 (let ((?x2947 (* ?x751 |v1:10|)))
 (let (($x56 (<= (+ (+ (+ (* (- 18.0) |v7:4|) (* (- 10.0) |v3:8|)) ?x2947) ?x1338) ?x2345)))
 (let ((?x1483 (+ (+ (+ (* (- 1.0) (rval2 |v6:5_st|)) ?x1509) (* 9.0 |v7:4|)) (* (- 7.0) ?x2385))))
 (let ((?x1152 (rval2 |v10:1_st|)))
 (let ((?x1784 (- 3.0)))
 (let ((?x986 (* ?x1784 ?x1152)))
 (let ((?x808 (+ (+ (+ (* (- 19.0) |v1:10|) (* 14.0 |v1:10|)) ?x986) (* (- 17.0) ?x2385))))
 (let ((?x1112 (+ (+ (+ (* (- 13.0) ?x1592) (* 8.0 |v9:2|)) (* 10.0 (rval2 |v8:3_st|))) (* 7.0 (rval2 |v8:3_st|)))))
 (let ((?x530 (+ (+ (* 19.0 |v11:0|) (* (- 9.0) |v11:0|)) (* (- 17.0) (rval2 |v8:3_st|)))))
 (let ((?x2686 (- 18.0)))
 (let ((?x2380 (* ?x988 |v7:4|)))
 (let ((?x454 (+ (+ (+ (* 0.0 |v3:8|) (* 10.0 |v5:6|)) (* (- 19.0) |v3:8|)) ?x2380)))
 (let (($x1147 (and (and (<= ?x454 ?x2686) (<= (+ ?x530 (* (- 11.0) ?x1592)) 13.0)) (or (<= ?x1112 ?x751) (<= ?x808 12.0)))))
 (let ((?x832 (* 13.0 |v5:6|)))
 (let ((?x893 (+ (+ (+ (* 13.0 |v3:8|) (* (- 2.0) |v3:8|)) (* 10.0 |v7:4|)) ?x832)))
 (let ((?x61 (- 13.0)))
 (let ((?x3010 (* 8.0 |v9:2|)))
 (let ((?x957 (+ (+ (* 18.0 (rval2 |v0:11_st|)) (* (- 5.0) |v9:2|)) (* 13.0 (rval2 |v0:11_st|)))))
 (let ((?x1197 (rval2 |v6:5_st|)))
 (let ((?x649 (- 1.0)))
 (let ((?x414 (* ?x649 ?x1197)))
 (let ((?x1692 (+ (+ (+ (* (- 9.0) |v9:2|) (* 11.0 (rval2 |v8:3_st|))) (* ?x649 ?x1592)) ?x414)))
 (let ((?x1654 (- 10.0)))
 (let (($x425 (<= (+ (+ (+ (* ?x988 |v11:0|) ?x986) (* ?x751 ?x1592)) (* 16.0 |v9:2|)) ?x1654)))
 (let (($x290 (and (or $x425 (<= ?x1692 ?x61)) (and (<= (+ ?x957 ?x3010) ?x61) (<= ?x893 ?x751)))))
 (let (($x13 (or (and $x290 $x1147) (or (or (and (<= ?x1483 8.0) $x56) $x848) $x2463))))
 (let ((?x2653 (+ (+ (+ ?x414 (* 16.0 (rval2 |v0:11_st|))) (* (- 11.0) |v9:2|)) (* 14.0 |v9:2|))))
 (let ((?x2912 (- 2.0)))
 (let ((?x3101 (- 9.0)))
 (let ((?x3074 (* ?x3101 |v9:2|)))
 (let ((?x1715 (+ (+ (+ (* (- 11.0) ?x1197) (* 9.0 |v7:4|)) (* (- 17.0) |v1:10|)) ?x3074)))
 (let (($x1423 (not (= |v0:11_st| (RMk1 val!2759)))))
 (let (($x937 (not (= |v2:9_st| (RMk1 val!2758)))))
 (let (($x1277 (not (= |v4:7_st| (RMk1 val!2757)))))
 (let (($x1151 (not (= |v6:5_st| (RMk1 val!2756)))))
 (let (($x1011 (not (= |v8:3_st| (RMk1 val!2755)))))
 (let (($x439 (not (= |v10:1_st| (RMk1 val!2754)))))
 (and $x439 $x1011 $x1151 $x1277 $x937 $x1423 (and (<= ?x1715 ?x2912) (or (<= ?x2653 0.0) $x13)))))))))))))))))))))))))))))))))))))))))))))))))))))))))))
 )
 )
 )
 )
 )
 )
 )
 )
 )
 )
 )
 )
(check-sat)
